\ File written by HiGHS .lp file handler
min
 obj: -1 COL00004 
st
 ROW00001: +2 COL00001 +1 COL00002 +1.5 COL00003 <= +200
 ROW00002: +1 COL00001 +2 COL00002 +1.5 COL00003 <= +100
 ROW00003: <= +0
 ROW00004: +1 COL00004 -1 COL00005 = +0
 ROW00005: -1 COL00001 +1 COL00006 = +0
 ROW00006: -1 COL00002 +1 COL00007 = +0
 ROW00007: -1 COL00003 +1 COL00008 = +0
 ROW00008: -1 COL00006 +1 COL00009 <= +0
 ROW00009: -1 COL00007 +1 COL00010 <= +0
 ROW00010: -1 COL00008 +1 COL00011 <= +0
 ROW00011: -1 COL00009 +2 COL00012 +1 COL00013 +1.5 COL00014 <= +200
 ROW00012: -1 COL00010 +1 COL00012 +2 COL00013 +1.5 COL00014 <= +100
 ROW00013: +1 COL00005 -1 COL00011 <= +0
 ROW00014: +1.1 COL00004 -1 COL00015 = +0
 ROW00015: +1 COL00005 +1 COL00015 -1 COL00016 = +0
 ROW00016: -1 COL00006 -1 COL00012 +1 COL00017 = +0
 ROW00017: -1 COL00007 -1 COL00013 +1 COL00018 = +0
 ROW00018: -1 COL00008 -1 COL00014 +1 COL00019 = +0
 ROW00019: -1 COL00017 +1 COL00020 <= +0
 ROW00020: -1 COL00018 +1 COL00021 <= +0
 ROW00021: -1 COL00019 +1 COL00022 <= +0
 ROW00022: -1 COL00020 +2 COL00023 +1 COL00024 +1.5 COL00025 <= +200
 ROW00023: -1 COL00021 +1 COL00023 +2 COL00024 +1.5 COL00025 <= +100
 ROW00024: +1 COL00016 -1 COL00022 <= +0
 ROW00025: +1.1 COL00015 -1 COL00026 = +0
 ROW00026: +1 COL00016 +1 COL00026 -1 COL00027 = +0
 ROW00027: -1 COL00017 -1 COL00023 +1 COL00028 = +0
 ROW00028: -1 COL00018 -1 COL00024 +1 COL00029 = +0
 ROW00029: -1 COL00019 -1 COL00025 +1 COL00030 = +0
 ROW00030: -1 COL00028 +1 COL00031 <= +0
 ROW00031: -1 COL00029 +1 COL00032 <= +0
 ROW00032: -1 COL00030 +1 COL00033 <= +0
 ROW00033: -1 COL00031 +2 COL00034 +1 COL00035 +1.5 COL00036 <= +200
 ROW00034: -1 COL00032 +1 COL00034 +2 COL00035 +1.5 COL00036 <= +100
 ROW00035: +1 COL00027 -1 COL00033 <= +0
 ROW00036: +1.1 COL00026 -1 COL00037 = +0
 ROW00037: +1 COL00027 +1 COL00037 -1 COL00038 = +0
 ROW00038: -1 COL00028 -1 COL00034 +1 COL00039 = +0
 ROW00039: -1 COL00029 -1 COL00035 +1 COL00040 = +0
 ROW00040: -1 COL00030 -1 COL00036 +1 COL00041 = +0
 ROW00041: -1 COL00039 +1 COL00042 <= +0
 ROW00042: -1 COL00040 +1 COL00043 <= +0
 ROW00043: -1 COL00041 +1 COL00044 <= +0
 ROW00044: -1 COL00042 +2 COL00045 +1 COL00046 +1.5 COL00047 <= +200
 ROW00045: -1 COL00043 +1 COL00045 +2 COL00046 +1.5 COL00047 <= +100
 ROW00046: +1 COL00038 -1 COL00044 <= +0
 ROW00047: +1.1 COL00037 -1 COL00048 = +0
 ROW00048: +1 COL00038 +1 COL00048 -1 COL00049 = +0
 ROW00049: -1 COL00039 -1 COL00045 +1 COL00050 = +0
 ROW00050: -1 COL00040 -1 COL00046 +1 COL00051 = +0
 ROW00051: -1 COL00041 -1 COL00047 +1 COL00052 = +0
 ROW00052: -1 COL00050 +1 COL00053 <= +0
 ROW00053: -1 COL00051 +1 COL00054 <= +0
 ROW00054: -1 COL00052 +1 COL00055 <= +0
 ROW00055: -1 COL00053 +2 COL00056 +1 COL00057 +1.5 COL00058 <= +200
 ROW00056: -1 COL00054 +1 COL00056 +2 COL00057 +1.5 COL00058 <= +100
 ROW00057: +1 COL00049 -1 COL00055 <= +0
 ROW00058: +1.1 COL00048 -1 COL00059 = +0
 ROW00059: +1 COL00049 +1 COL00059 -1 COL00060 = +0
 ROW00060: -1 COL00050 -1 COL00056 +1 COL00061 = +0
 ROW00061: -1 COL00051 -1 COL00057 +1 COL00062 = +0
 ROW00062: -1 COL00052 -1 COL00058 +1 COL00063 = +0
 ROW00063: -1 COL00061 +1 COL00064 <= +0
 ROW00064: -1 COL00062 +1 COL00065 <= +0
 ROW00065: -1 COL00063 +1 COL00066 <= +0
 ROW00066: -1 COL00064 +2 COL00067 +1 COL00068 +1.5 COL00069 <= +200
 ROW00067: -1 COL00065 +1 COL00067 +2 COL00068 +1.5 COL00069 <= +100
 ROW00068: +1 COL00060 -1 COL00066 <= +0
 ROW00069: +1.1 COL00059 -1 COL00070 = +0
 ROW00070: +1 COL00060 +1 COL00070 -1 COL00071 = +0
 ROW00071: -1 COL00061 -1 COL00067 +1 COL00072 = +0
 ROW00072: -1 COL00062 -1 COL00068 +1 COL00073 = +0
 ROW00073: -1 COL00063 -1 COL00069 +1 COL00074 = +0
 ROW00074: -1 COL00072 +1 COL00075 <= +0
 ROW00075: -1 COL00073 +1 COL00076 <= +0
 ROW00076: -1 COL00074 +1 COL00077 <= +0
 ROW00077: -1 COL00075 +2 COL00078 +1 COL00079 +1.5 COL00080 <= +200
 ROW00078: -1 COL00076 +1 COL00078 +2 COL00079 +1.5 COL00080 <= +100
 ROW00079: +1 COL00071 -1 COL00077 <= +0
 ROW00080: +1.1 COL00070 -1 COL00081 = +0
 ROW00081: +1 COL00071 +1 COL00081 -1 COL00082 = +0
 ROW00082: -1 COL00072 -1 COL00078 +1 COL00083 = +0
 ROW00083: -1 COL00073 -1 COL00079 +1 COL00084 = +0
 ROW00084: -1 COL00074 -1 COL00080 +1 COL00085 = +0
 ROW00085: -1 COL00083 +1 COL00086 <= +0
 ROW00086: -1 COL00084 +1 COL00087 <= +0
 ROW00087: -1 COL00085 +1 COL00088 <= +0
 ROW00088: -1 COL00086 +2 COL00089 +1 COL00090 +1.5 COL00091 <= +200
 ROW00089: -1 COL00087 +1 COL00089 +2 COL00090 +1.5 COL00091 <= +100
 ROW00090: +1 COL00082 -1 COL00088 <= +0
 ROW00091: +1.1 COL00081 -1 COL00092 = +0
 ROW00092: +1 COL00082 +1 COL00092 -1 COL00093 = +0
 ROW00093: -1 COL00083 -1 COL00089 +1 COL00094 = +0
 ROW00094: -1 COL00084 -1 COL00090 +1 COL00095 = +0
 ROW00095: -1 COL00085 -1 COL00091 +1 COL00096 = +0
 ROW00096: -1 COL00094 +1 COL00097 <= +0
 ROW00097: -1 COL00095 +1 COL00098 <= +0
 ROW00098: -1 COL00096 +1 COL00099 <= +0
 ROW00099: -1 COL00097 +2 COL00100 +1 COL00101 +1.5 COL00102 <= +200
 ROW00100: -1 COL00098 +1 COL00100 +2 COL00101 +1.5 COL00102 <= +100
 ROW00101: +1 COL00093 -1 COL00099 <= +0
 ROW00102: +1 COL00103 = +0
 ROW00103: +1.1 COL00092 -1 COL00104 = +0
 ROW00104: +1 COL00093 +1 COL00104 -1 COL00105 = +0
 ROW00105: -1 COL00094 -1 COL00100 +1 COL00106 = +0
 ROW00106: -1 COL00095 -1 COL00101 +1 COL00107 = +0
 ROW00107: -1 COL00096 -1 COL00102 +1 COL00108 = +0
 ROW00108: -1 COL00106 +1 COL00109 <= +0
 ROW00109: -1 COL00107 +1 COL00110 <= +0
 ROW00110: -1 COL00108 +1 COL00111 <= +0
 ROW00111: -1 COL00109 +2 COL00112 +1 COL00113 +1.5 COL00114 <= +200
 ROW00112: -1 COL00110 +1 COL00112 +2 COL00113 +1.5 COL00114 <= +100
 ROW00113: +1 COL00105 -1 COL00111 <= +0
 ROW00114: +1.1 COL00104 -1 COL00115 = +0
 ROW00115: +1 COL00105 +1 COL00115 -1 COL00116 = +0
 ROW00116: -1 COL00106 -1 COL00112 +1 COL00117 = +0
 ROW00117: -1 COL00107 -1 COL00113 +1 COL00118 = +0
 ROW00118: -1 COL00108 -1 COL00114 +1 COL00119 = +0
 ROW00119: -1 COL00117 +1 COL00120 <= +0
 ROW00120: -1 COL00118 +1 COL00121 <= +0
 ROW00121: -1 COL00119 +1 COL00122 <= +0
 ROW00122: -1 COL00120 +2 COL00123 +1 COL00124 +1.5 COL00125 <= +200
 ROW00123: -1 COL00121 +1 COL00123 +2 COL00124 +1.5 COL00125 <= +100
 ROW00124: +1 COL00116 -1 COL00122 <= +0
 ROW00125: +1.1 COL00115 -1 COL00126 = +0
 ROW00126: +1 COL00116 +1 COL00126 -1 COL00127 = +0
 ROW00127: -1 COL00117 -1 COL00123 +1 COL00128 = +0
 ROW00128: -1 COL00118 -1 COL00124 +1 COL00129 = +0
 ROW00129: -1 COL00119 -1 COL00125 +1 COL00130 = +0
 ROW00130: -1 COL00128 +1 COL00131 <= +0
 ROW00131: -1 COL00129 +1 COL00132 <= +0
 ROW00132: -1 COL00130 +1 COL00133 <= +0
 ROW00133: -1 COL00131 +2 COL00134 +1 COL00135 +1.5 COL00136 <= +200
 ROW00134: -1 COL00132 +1 COL00134 +2 COL00135 +1.5 COL00136 <= +100
 ROW00135: +1 COL00127 -1 COL00133 <= +0
 ROW00136: +1.1 COL00126 -1 COL00137 = +0
 ROW00137: +1 COL00127 +1 COL00137 -1 COL00138 = +0
 ROW00138: -1 COL00128 -1 COL00134 +1 COL00139 = +0
 ROW00139: -1 COL00129 -1 COL00135 +1 COL00140 = +0
 ROW00140: -1 COL00130 -1 COL00136 +1 COL00141 = +0
 ROW00141: -1 COL00139 +1 COL00142 <= +0
 ROW00142: -1 COL00140 +1 COL00143 <= +0
 ROW00143: -1 COL00141 +1 COL00144 <= +0
 ROW00144: -1 COL00142 +2 COL00145 +1 COL00146 +1.5 COL00147 <= +200
 ROW00145: -1 COL00143 +1 COL00145 +2 COL00146 +1.5 COL00147 <= +100
 ROW00146: +1 COL00138 -1 COL00144 <= +0
 ROW00147: +1.1 COL00137 -1 COL00148 = +0
 ROW00148: +1 COL00138 +1 COL00148 -1 COL00149 = +0
 ROW00149: -1 COL00139 -1 COL00145 +1 COL00150 = +0
 ROW00150: -1 COL00140 -1 COL00146 +1 COL00151 = +0
 ROW00151: -1 COL00141 -1 COL00147 +1 COL00152 = +0
 ROW00152: -1 COL00150 +1 COL00153 <= +0
 ROW00153: -1 COL00151 +1 COL00154 <= +0
 ROW00154: -1 COL00152 +1 COL00155 <= +0
 ROW00155: -1 COL00153 +2 COL00156 +1 COL00157 +1.5 COL00158 <= +200
 ROW00156: -1 COL00154 +1 COL00156 +2 COL00157 +1.5 COL00158 <= +100
 ROW00157: +1 COL00149 -1 COL00155 <= +0
 ROW00158: +1.1 COL00148 -1 COL00159 = +0
 ROW00159: +1 COL00149 +1 COL00159 -1 COL00160 = +0
 ROW00160: -1 COL00150 -1 COL00156 +1 COL00161 = +0
 ROW00161: -1 COL00151 -1 COL00157 +1 COL00162 = +0
 ROW00162: -1 COL00152 -1 COL00158 +1 COL00163 = +0
 ROW00163: -1 COL00161 +1 COL00164 <= +0
 ROW00164: -1 COL00162 +1 COL00165 <= +0
 ROW00165: -1 COL00163 +1 COL00166 <= +0
 ROW00166: -1 COL00164 +2 COL00167 +1 COL00168 +1.5 COL00169 <= +200
 ROW00167: -1 COL00165 +1 COL00167 +2 COL00168 +1.5 COL00169 <= +100
 ROW00168: +1 COL00160 -1 COL00166 <= +0
 ROW00169: +1.1 COL00159 -1 COL00170 = +0
 ROW00170: +1 COL00160 +1 COL00170 -1 COL00171 = +0
 ROW00171: -1 COL00161 -1 COL00167 +1 COL00172 = +0
 ROW00172: -1 COL00162 -1 COL00168 +1 COL00173 = +0
 ROW00173: -1 COL00163 -1 COL00169 +1 COL00174 = +0
 ROW00174: -1 COL00172 +1 COL00175 <= +0
 ROW00175: -1 COL00173 +1 COL00176 <= +0
 ROW00176: -1 COL00174 +1 COL00177 <= +0
 ROW00177: -1 COL00175 +2 COL00178 +1 COL00179 +1.5 COL00180 <= +200
 ROW00178: -1 COL00176 +1 COL00178 +2 COL00179 +1.5 COL00180 <= +100
 ROW00179: +1 COL00171 -1 COL00177 <= +0
 ROW00180: +1.1 COL00170 -1 COL00181 = +0
 ROW00181: +1 COL00171 +1 COL00181 -1 COL00182 = +0
 ROW00182: -1 COL00172 -1 COL00178 +1 COL00183 = +0
 ROW00183: -1 COL00173 -1 COL00179 +1 COL00184 = +0
 ROW00184: -1 COL00174 -1 COL00180 +1 COL00185 = +0
 ROW00185: -1 COL00183 +1 COL00186 <= +0
 ROW00186: -1 COL00184 +1 COL00187 <= +0
 ROW00187: -1 COL00185 +1 COL00188 <= +0
 ROW00188: -1 COL00186 +2 COL00189 +1 COL00190 +1.5 COL00191 <= +200
 ROW00189: -1 COL00187 +1 COL00189 +2 COL00190 +1.5 COL00191 <= +100
 ROW00190: +1 COL00182 -1 COL00188 <= +0
 ROW00191: +1.1 COL00181 -1 COL00192 = +0
 ROW00192: +1 COL00182 +1 COL00192 -1 COL00193 = +0
 ROW00193: -1 COL00183 -1 COL00189 +1 COL00194 = +0
 ROW00194: -1 COL00184 -1 COL00190 +1 COL00195 = +0
 ROW00195: -1 COL00185 -1 COL00191 +1 COL00196 = +0
 ROW00196: -1 COL00194 +1 COL00197 <= +0
 ROW00197: -1 COL00195 +1 COL00198 <= +0
 ROW00198: -1 COL00196 +1 COL00199 <= +0
 ROW00199: -1 COL00197 +2 COL00200 +1 COL00201 +1.5 COL00202 <= +200
 ROW00200: -1 COL00198 +1 COL00200 +2 COL00201 +1.5 COL00202 <= +100
 ROW00201: +1 COL00193 -1 COL00199 <= +0
 ROW00202: +1.1 COL00192 -1 COL00203 = +0
 ROW00203: -0.8 COL00200 +0.1 COL00201 +0.15 COL00202 <= +0
 ROW00204: +0.1 COL00200 -0.8 COL00201 +0.15 COL00202 <= +0
 ROW00205: -1 COL00202 +1 COL00203 <= +0
bounds
end
